objective value:                                  -16
t_n_0                                               1 	(obj:-1)
t_n_278                                             1 	(obj:-1)
t_n_329                                             1 	(obj:-1)
t_n_346                                             1 	(obj:-1)
t_n_384                                             1 	(obj:-1)
t_n_432                                             1 	(obj:-1)
t_n_529                                             1 	(obj:-1)
t_n_615                                             1 	(obj:-1)
t_n_659                                             1 	(obj:-1)
t_n_677                                             1 	(obj:-1)
t_n_807                                             1 	(obj:-1)
t_n_831                                             1 	(obj:-1)
t_n_859                                             1 	(obj:-1)
t_n_873                                             1 	(obj:-1)
t_n_925                                             1 	(obj:-1)
t_n_987                                             1 	(obj:-1)
